data;
param Ptur_max := 15.0; #MW
param Ppum_max := 10.0; #MW
param Qw_tur := 5; #m3/s
param Qw_pum := 4.5; #m3/s
param lake_max := 210000; #m3


param hpfc :=
[1] 35.83
[2] 32.86
[3] 31.09
[4] 31.45
[5] 36.04
[6] 46.79
[7] 56.94
[8] 61.96
[9] 61.27
[10] 57.91
[11] 54.38
[12] 51.05
[13] 48.45
[14] 47.13
[15] 46.82
[16] 46.00
[17] 48.55
[18] 51.19
[19] 59.83
[20] 49.00
[21] 42.98
[22] 41.42
[23] 38.86
[24] 37.53;

end;

